c This is UnifRandomKSATGenerator
c uniform random 3-SAT generated instance with: 
c clause length: 3 
c number variables: 20 
c number clauses: 85 
c clause to variable ratio: 4.27 
c random number generator name: SHA1PRNG 
c random number generator provider: SUN 
c random number generator seed: 811515469111639791 
p cnf 20 85
18 -4 13 0
-1 18 -15 0
1 11 -6 0
17 5 15 0
11 13 7 0
-9 -11 15 0
16 17 -19 0
17 19 14 0
-18 10 19 0
-9 10 4 0
18 -12 6 0
-1 4 5 0
-9 8 -4 0
2 12 -6 0
-4 6 14 0
16 19 5 0
-17 -12 14 0
8 16 14 0
-17 -12 20 0
19 20 -14 0
-11 -13 -8 0
-9 -2 -12 0
-5 -6 7 0
-2 3 12 0
-9 16 -3 0
17 -19 -15 0
20 13 7 0
-2 -19 -6 0
-12 -4 -8 0
8 -10 4 0
-2 10 -13 0
15 -8 -16 0
-11 -6 13 0
20 -8 -16 0
17 -20 -16 0
1 -20 6 0
-20 -15 -7 0
9 14 -16 0
-13 -6 -15 0
-1 -7 -8 0
11 19 -7 0
1 18 -16 0
-3 18 11 0
2 13 15 0
-9 -1 16 0
1 17 -8 0
-13 -15 14 0
16 -11 -14 0
-19 4 5 0
-17 16 8 0
-4 6 -15 0
2 -12 -6 0
1 -13 -8 0
17 -6 14 0
-19 -4 14 0
10 -3 4 0
16 -1 20 0
8 -1 13 0
8 10 11 0
16 8 10 0
9 -13 14 0
-9 -2 -14 0
-1 9 15 0
-13 -7 14 0
3 19 -8 0
16 1 -5 0
-1 17 -6 0
19 -20 -13 0
2 -13 5 0
17 10 -13 0
-9 -2 -6 0
-17 -6 7 0
-18 -8 7 0
8 9 -2 0
1 14 15 0
10 3 14 0
-2 -7 15 0
-17 -14 13 0
-19 -20 -14 0
-2 -3 20 0
-20 12 5 0
10 -11 7 0
-15 14 7 0
-17 -1 -19 0
-1 9 -11 0
